qbf_easy_train/easy_1039_SAT.qdimacs
p cnf 32 86
a 10 2 0
e 1 3 4 5 6 7 8 9 11 12 13 14 15 16 17 18 19 20 21 22 23 24 25 26 27 28 29 30 31 32 0
3 -1 0
3 2 0
1 -2 -3 0
5 -3 0
5 -4 0
3 4 -5 0
-7 -6 0
-7 3 0
6 -3 7 0
-9 3 0
-9 8 0
-3 -8 9 0
-10 7 0
-10 9 0
-7 -9 10 0
11 3 0
11 10 0
-3 -10 -11 0
12 -5 0
12 11 0
5 -11 -12 0
14 13 0
14 4 0
-13 -4 -14 0
-12 -14 -15 0
12 14 -15 0
-12 14 15 0
12 -14 15 0
17 1 0
17 -2 0
-1 2 -17 0
-16 17 -18 0
16 -17 -18 0
-16 -17 18 0
16 17 18 0
-19 20 0
19 20 0
-9 -13 -21 0
9 13 -21 0
-9 13 21 0
9 -13 21 0
22 -20 0
22 -21 0
20 21 -22 0
18 22 -23 0
-18 -22 -23 0
18 -22 23 0
-18 22 23 0
24 7 0
24 8 0
-7 -8 -24 0
25 24 0
25 -19 0
-24 19 -25 0
-26 23 0
-26 -25 0
-23 25 26 0
-27 -3 0
-27 -24 0
3 24 27 0
3 -6 -28 0
-3 6 -28 0
3 6 28 0
-3 -6 28 0
-29 -28 0
-29 -2 0
28 2 29 0
27 29 -30 0
-27 -29 -30 0
27 -29 30 0
-27 29 30 0
-31 26 0
-31 -30 0
-26 30 31 0
32 15 0
32 -31 0
-15 31 -32 0
4 -2 14 0
3 29 -22 13 -19 0
14 27 17 22 -7 -9 -29 0
-16 13 -4 -20 25 24 -14 0
-11 29 8 -5 25 18 0
-5 -6 13 0
11 -10 25 -8 2 -32 -5 0
7 20 32 -24 26 25 0
32 0
