sat_easy_train/easy_1039_SAT.dimacs
p cnf 110 360
1 -2 -3 0
-1 2 -3 0
1 2 3 0
-1 -2 3 0
-7 5 0
-7 -6 0
-5 6 7 0
-8 5 0
-8 7 0
-5 -7 8 0
11 4 0
11 -10 0
-4 10 -11 0
12 9 0
12 11 0
-9 -11 -12 0
-14 -13 0
-14 -1 0
13 1 14 0
14 2 -15 0
-14 -2 -15 0
14 -2 15 0
-14 2 15 0
-16 12 0
-16 15 0
-12 -15 16 0
-17 8 0
-17 -16 0
-8 16 17 0
4 17 -18 0
-4 -17 -18 0
4 -17 18 0
-4 17 18 0
-3 -18 -19 0
3 18 -19 0
-3 18 19 0
3 -18 19 0
20 2 0
20 -2 0
14 -16 -21 0
-14 16 -21 0
14 16 21 0
-14 -16 21 0
22 20 0
22 -21 0
-20 21 -22 0
-24 23 0
-24 1 0
-23 -1 24 0
25 -24 0
25 2 0
24 -2 -25 0
-26 23 0
-26 -15 0
-23 15 26 0
27 -25 0
27 26 0
25 -26 -27 0
9 23 -28 0
-9 -23 -28 0
9 -23 28 0
-9 23 28 0
-30 -28 0
-30 24 0
28 -24 30 0
-13 -30 -31 0
13 30 -31 0
-13 30 31 0
13 -30 31 0
-32 29 0
-32 31 0
-29 -31 32 0
34 -10 0
34 33 0
10 -33 -34 0
35 32 0
35 34 0
-32 -34 -35 0
35 24 -36 0
-35 -24 -36 0
35 -24 36 0
-35 24 36 0
37 28 0
37 -36 0
-28 36 -37 0
38 -27 0
38 -37 0
27 37 -38 0
-39 -22 0
-39 -38 0
22 38 39 0
-40 19 0
-40 39 0
-19 -39 40 0
-4 28 -41 0
4 -28 -41 0
-4 -28 41 0
4 28 41 0
42 -40 0
42 -41 0
40 41 -42 0
43 3 0
43 30 0
-3 -30 -43 0
44 -4 0
44 23 0
4 -23 -44 0
45 -44 0
45 -44 0
44 -45 0
-21 5 -46 0
21 -5 -46 0
-21 -5 46 0
21 5 46 0
47 46 0
47 21 0
-46 -21 -47 0
-48 45 0
-48 47 0
-45 -47 48 0
-49 -13 0
-49 -3 0
13 3 49 0
-23 10 -50 0
23 -10 -50 0
-23 -10 50 0
23 10 50 0
-51 50 0
-51 -50 0
49 -51 -52 0
-49 51 -52 0
49 51 52 0
-49 -51 52 0
53 -48 0
53 52 0
48 -52 -53 0
34 -11 -54 0
-34 11 -54 0
34 11 54 0
-34 -11 54 0
28 -54 -55 0
-28 54 -55 0
28 54 55 0
-28 -54 55 0
-56 -8 0
-56 55 0
8 -55 56 0
-56 6 -57 0
56 -6 -57 0
-56 -6 57 0
56 6 57 0
9 58 -59 0
-9 -58 -59 0
9 -58 59 0
-9 58 59 0
60 5 0
60 59 0
-5 -59 -60 0
61 60 0
61 29 0
-60 -29 -61 0
-62 -57 0
-62 61 0
57 -61 62 0
63 -35 0
63 -7 0
35 7 -63 0
64 -58 0
64 15 0
58 -15 -64 0
-65 -1 0
-65 -64 0
1 64 65 0
66 -44 0
66 -13 0
44 13 -66 0
-67 -65 0
-67 -66 0
65 66 67 0
68 63 0
68 -67 0
-63 67 -68 0
69 62 0
69 68 0
-62 -68 -69 0
-70 -53 0
-70 69 0
53 -69 70 0
71 -29 0
71 6 0
29 -6 -71 0
-72 -50 0
-72 2 0
50 -2 72 0
73 71 0
73 72 0
-71 -72 -73 0
74 -28 0
74 2 0
28 -2 -74 0
75 73 0
75 -74 0
-73 74 -75 0
76 1 -77 0
-76 -1 -77 0
76 -1 77 0
-76 1 77 0
75 77 -78 0
-75 -77 -78 0
75 -77 78 0
-75 77 78 0
-80 -9 0
-80 -79 0
9 79 80 0
-81 32 0
-81 -80 0
-32 80 81 0
78 -81 -82 0
-78 81 -82 0
78 81 82 0
-78 -81 82 0
70 -82 -83 0
-70 82 -83 0
70 82 83 0
-70 -82 83 0
-28 33 -84 0
28 -33 -84 0
-28 -33 84 0
28 33 84 0
-54 -16 -85 0
54 16 -85 0
-54 16 85 0
54 -16 85 0
-3 -31 -86 0
3 31 -86 0
-3 31 86 0
3 -31 86 0
87 65 0
87 80 0
-65 -80 -87 0
-8 -88 -89 0
8 88 -89 0
-8 88 89 0
8 -88 89 0
90 -87 0
90 89 0
87 -89 -90 0
91 60 0
91 79 0
-60 -79 -91 0
92 -44 0
92 59 0
44 -59 -92 0
93 91 0
93 92 0
-91 -92 -93 0
-50 -93 -94 0
50 93 -94 0
-50 93 94 0
50 -93 94 0
-95 -90 0
-95 -94 0
90 94 95 0
96 60 -97 0
-96 -60 -97 0
96 -60 97 0
-96 60 97 0
98 -95 0
98 -97 0
95 97 -98 0
-86 -98 -99 0
86 98 -99 0
-86 98 99 0
86 -98 99 0
100 -85 0
100 -99 0
85 99 -100 0
-84 -100 -101 0
84 100 -101 0
-84 100 101 0
84 -100 101 0
83 -101 -102 0
-83 101 -102 0
83 101 102 0
-83 -101 102 0
43 -102 -103 0
-43 102 -103 0
43 102 103 0
-43 -102 103 0
-104 42 0
-104 -103 0
-42 103 104 0
-105 14 0
-105 30 0
-14 -30 105 0
-106 -105 0
-106 -24 0
105 24 106 0
107 28 0
107 -106 0
-28 106 -107 0
-18 44 -108 0
18 -44 -108 0
-18 -44 108 0
18 44 108 0
-109 107 0
-109 108 0
-107 -108 109 0
-104 109 -110 0
104 -109 -110 0
-104 -109 110 0
104 109 110 0
-44 79 -48 -81 -5 -42 0
68 102 -94 11 0
104 98 -25 0
-93 49 88 -10 0
-22 -25 32 -11 97 -99 0
-79 2 0
98 -73 -40 0
-2 80 -3 -50 0
83 -5 -109 -70 0
-86 59 -104 0
71 70 -82 99 101 -65 0
77 38 19 0
-108 -4 13 0
-77 -1 72 -12 28 46 0
61 18 57 -76 -33 7 0
-6 71 -89 60 68 -98 0
109 -63 -60 -89 0
4 104 -32 -82 5 -6 0
15 -47 -90 0
2 -30 -105 0
-76 23 66 0
77 28 89 0
-20 89 97 -49 34 0
-65 -45 42 102 11 0
-63 -83 0
-73 11 -5 -14 0
77 -40 -106 59 0
92 -19 -35 -64 -18 0
-59 3 0
77 69 -72 -82 1 0
52 55 -77 -22 -21 88 0
-85 -24 55 0
-61 -42 -48 -85 0
-58 62 0
12 -103 0
-83 18 -72 -97 0
-70 68 33 -85 -65 99 0
-2 -19 0
84 27 38 0
8 -72 -101 21 -30 0
-84 -63 0
-22 -92 -28 0
34 -99 -29 -83 38 68 0
22 96 0
35 77 -26 0
-72 81 -42 -85 0
62 -82 29 -100 48 61 0
110 0
